# Node Net
550   1
2479   1
951   1
1150   1
2474   1
  3   2
2456   2
2250   2
2050   2
2460   3
2400   3
2201   3
2453   3
 40   4
2300   4
1451   4
1350   4
 51   5
 15   5
1400   5
2461   5
950   6
2351   6
 36   6
  5   6
851   7
 29   7
2467   7
2463   7
 26   8
1301   8
 16   8
 17   8
  9   9
1250   9
 45   9
 43  10
 35  10
350  11
1601  11
1950  12
1551  12
